c Random generated cnf formula, satisfiable: true
p cnf 10 50
-9 8 5 0
4 -5 -8 0
1 3 8 0
9 -5 -2 0
10 -6 3 0
6 9 4 0
-5 10 -8 0
-9 5 -10 0
1 9 -5 0
7 -9 -4 0
-9 -8 -7 0
2 3 8 0
9 6 -4 0
8 2 -4 0
1 7 4 0
-3 -1 -10 0
-9 -4 -10 0
-8 -6 4 0
-4 10 -8 0
-8 4 -5 0
-5 -3 -1 0
4 -5 -3 0
2 -8 10 0
-10 4 -3 0
4 -9 -6 0
-9 2 1 0
7 -10 -4 0
-6 4 5 0
-9 -7 1 0
-9 5 -4 0
5 8 1 0
1 -3 -9 0
-3 6 8 0
7 2 10 0
-4 10 8 0
8 -9 10 0
6 5 8 0
5 -3 6 0
-4 6 -7 0
5 -3 1 0
7 -6 1 0
-2 -3 9 0
-4 -5 8 0
7 -2 1 0
-3 -9 7 0
5 9 -1 0
-6 -4 8 0
2 4 10 0
-8 -5 -10 0
-9 2 -1 0
